c read Graph
c width = 2
c time = 39 ms
c width = 2
c time = 5050 ms
s td 38 3 40
b 1 1 2 22
b 2 2 3 23
b 3 3 4 24
b 4 4 5 25
b 5 5 6 26
b 6 6 7 27
b 7 7 8 28
b 8 8 9 29
b 9 9 10 30
b 10 10 11 31
b 11 11 12 32
b 12 12 13 33
b 13 13 14 34
b 14 14 15 35
b 15 15 16 36
b 16 16 17 37
b 17 17 18 38
b 18 18 19 39
b 19 19 20 40
b 20 19 39 40
b 21 18 38 39
b 22 17 37 38
b 23 16 36 37
b 24 15 35 36
b 25 14 34 35
b 26 13 33 34
b 27 12 32 33
b 28 11 31 32
b 29 10 30 31
b 30 9 29 30
b 31 8 28 29
b 32 7 27 28
b 33 6 26 27
b 34 5 25 26
b 35 4 24 25
b 36 3 23 24
b 37 2 22 23
b 38 1 21 22
1 38
1 37
2 37
2 36
3 36
3 35
4 35
4 34
5 34
5 33
6 33
6 32
7 32
7 31
8 31
8 30
9 30
9 29
10 29
10 28
11 28
11 27
12 27
12 26
13 26
13 25
14 25
14 24
15 24
15 23
16 23
16 22
17 22
17 21
18 21
18 20
19 20
